86
291
248
277
381
170
314
210
228
115
405
362
328
114
45
485
279
490
24
111
280
463
30
253
68
486
452
18
59
72
103
71
56
7
288
487
486
95
317
197
229
108
53
42
326
180
131
40
157
444
276
360
6
498
104
30
234
456
424
480
215
99
220
179
216
194
112
117
286
226
332
23
355
464
180
289
322
287
102
83
462
235
54
196
196
435
404
481
463
87
384
104
183
256
330
155
153
149
66
311
